SCIP version 5.0.0 [precision: 8 byte] [memory: block] [mode: optimized] [LP solver: NONE] [GitHash: 3bbd232]
Copyright (C) 2002-2017 Konrad-Zuse-Zentrum fuer Informationstechnik Berlin (ZIB)

External codes: 
  Readline EditLine w  GNU library for command line editing (gnu.org/s/readline)
  CppAD 20160000.1     Algorithmic Differentiation of C++ algorithms developed by B. Bell (www.coin-or.org/CppAD)
  ZLIB 1.2.5           General purpose compression library by J. Gailly and M. Adler (zlib.net)
  GMP 6.1.2            GNU Multiple Precision Arithmetic Library developed by T. Granlund (gmplib.org)

user parameter file <scip.set> not found - using default parameters

read problem <../../Split_data/output/spectf/1/1_sample_spectf.logreg>
============

File name	:	../../Split_data/output/spectf/1/1_sample_spectf.logreg
Problem name 	:	1_sample_spectf
Number of data	:	214
Number of var	:	44
The given data has linear independence

[dim=1] time: 0.010016
[dim=2] time: 0.018131
[dim=3] time: 0.026226
[dim=4] time: 0.033602
[dim=5] time: 0.040495
[dim=6] time: 0.04699
[dim=7] Time of forward = 0.053166sec.
AIC: 140.871
k: 6

[dim=44] time: 0.036909
[dim=43] time: 0.054147
[dim=42] time: 0.073077
[dim=41] time: 0.090863
[dim=40] time: 0.107065
[dim=39] time: 0.121037
[dim=38] time: 0.135736
[dim=37] time: 0.150522
[dim=36] time: 0.168445
[dim=35] time: 0.188405
[dim=34] time: 0.202831
[dim=33] time: 0.215297
[dim=32] time: 0.225042
[dim=31] time: 0.236663
[dim=30] time: 0.246923
[dim=29] time: 0.256262
[dim=28] time: 0.264023
[dim=27] time: 0.272315
[dim=26] time: 0.279762
[dim=25] time: 0.286452
[dim=24] time: 0.29465
[dim=23] time: 0.309092
[dim=22] time: 0.316591
[dim=21] time: 0.327208
[dim=20] time: 0.341455
[dim=19] time: 0.348247
[dim=18] time: 0.359059
[dim=17] Time of backward = 0.363645sec.
AIC: 141.619
k: 18
